
  22   10
  10   10   10   10   10   10   10   10   10   10

   0   0   0   0   0   0   0   0   0   0   0   1 2 
  10   0   0   0   0   0   0   0   0   0  10   2 5 3 
   4   0   0   0   0   0   0  10   0   0   0   1 4 
  10   0   0   0   0  10   0   0   0   0   0   1 6 
   7   0   0   0   0  10   0   0   0   0   0   1 6 
   2   0   0   0   0   0   0  10   0   0   0   2 8 7 
   2   0   0   0   0   0   0  10   0   0   0   3 18 14 9 
   7   0   0   0   0   0  10   0   0   0   0   4 14 13 12 11 
   7   0   0   0  10   0   0   0   0   0   0   2 13 10 
   6  10   0   0   0   0   0   0   0   0   0   3 16 12 11 
   5   0  10   0   0   0   0   0   0   0   0   4 21 20 17 15 
   4   0   0   0   0   0   0   0  10   0   0   3 21 20 15 
   2   0   0   0   0   0   0   0  10   0   0   3 20 16 15 
   3   0   0   0   0   0   0   0   0   0  10   2 20 19 
   5  10   0   0   0   0   0   0   0   0   0   1 19 
   9   0   0   0   0   0   0   0   0  10   0   1 19 
  10   0   0   0   0   0   0   0   0  10   0   1 19 
  10   0   0   0   0   0   0   0   0   0  10   1 21 
  10   0   0   0   0   0   0   0  10   0   0   1 22
   6   0   0   0   0   0  10   0   0   0   0   1 22
   4   0  10   0   0   0   0   0   0   0   0   1 22
   0   0   0   0   0   0   0   0   0   0   0   0 
